0 3926
1 3904
2 3846
4 3800
5 3764
20 3749
24 3738
25 3681
26 3678
28 3669
36 3629
39 3619
48 3600
61 3587
62 3582
63 3580
69 3570
78 3540
81 3539
93 3518
103 3517
105 3510
120 3509
126 3463
128 3428
129 3427
136 3416
152 3403
154 3371
156 3340
160 3322
164 3316
176 3311
290 3294
375 3282
385 3274
394 3271
398 3267
453 3259
497 3239
499 3230
513 3207
581 3202
676 3200
702 3197
705 3192
724 3191
726 3185
1314 3165
1326 3163
2051 3157
2083 3135
3147 3131
3151 3129
3174 3128
3186 3127
3234 3118
4135 3117
4193 3108
4295 3090
4471 3087
4747 3082
6823 3080
6879 3077
7070 3076
7095 3074
7746 3070
11531 3066
11684 3065
11819 3063
12675 3061
14094 3060
19483 3058
19572 3057
19895 3054
45514 3051
45586 3048
45737 3046
73294 3045
73998 3044
79553 3043
79619 3042
79882 3040
80152 3039
80548 3037
80956 3035
230086 3034
243527 3033
243593 3028
243636 3027
243678 3025
